F_UNIQ := 6 9 12;
F_NODES[6] := 6 7 8;
F_NODES[9] := 9 10 11;
F_NODES[12] := 12 13 14;
#definition

# set
set V := 1 2 3 4 5 ; 	# customer set
set F := 6 9 12 7 8 10 11 13 14 ;#recharging & battery swapping station
set D0 :=0;
set Dsig :=15;


# param
param CV := 200;    		# ECV fixed cost(Topic Given)
param C := 200;   		# ECV max load
param Q := 60.63; 		# ECV/BSV battery level
param h := 1;     		# ECV consumption

param CB := 267;    		# BSV fixed cost(Topic Given)
param Qplun := 5;       # BSV max load(battery)
param hplun := 1;     	# BSV consumption
param W := 121.26;		# BSV battery level

param Ct := 10;    		# travel cost
param Cr := 100;    		# recharging cost
param lamda := 0.00;	# battery swap time
param Cb ;  	    # battery swap cost(BSS/BSV)
param n :=5;	   		# number of customers
param g :=1.47 ;     	# the recharging rate of ECV 



# customer demend
param m :=
0 0
1 1
2 16
3 18
4 3
5 20
6 0
9 0
12 0
7 0
8 0
10 0
11 0
13 0
14 0
15 0;

param e :=
0 0
1 150
2 29
3 59
4 86
5 29
6 0
9 0
12 0
7 0
8 0
10 0
11 0
13 0
14 0
15 0;

param l :=
0 230
1 180
2 59
3 89
4 116
5 59
6 230
9 230
12 230
7 230
8 230
10 230
11 230
13 230
14 230
15 230;

param s :=
0 0
1 10
2 10
3 10
4 10
5 10
6 0
9 0
12 0
7 0
8 0
10 0
11 0
13 0
14 0
15 0;

param d : 0 1 2 3 4 5 6 9 12 7 8 10 11 13 14 15 :=
0 0.0000 25.6125 6.3246 27.7849 31.0644 14.8661 0.0000 29.0689 19.1050 0.0000 0.0000 29.0689 29.0689 19.1050 19.1050 0.0000
1 25.6125 0.0000 31.6228 34.9285 56.6127 11.1803 25.6125 52.2015 6.7082 25.6125 25.6125 52.2015 52.2015 6.7082 6.7082 25.6125
2 6.3246 31.6228 0.0000 27.2029 25.0000 20.6155 6.3246 23.0000 25.0000 6.3246 6.3246 23.0000 23.0000 25.0000 25.0000 6.3246
3 27.7849 34.9285 27.2029 0.0000 42.7200 27.2947 27.7849 30.0167 30.0832 27.7849 27.7849 30.0167 30.0167 30.0832 30.0832 27.7849
4 31.0644 56.6127 25.0000 42.7200 0.0000 45.6070 31.0644 15.2971 50.0000 31.0644 31.0644 15.2971 15.2971 50.0000 50.0000 31.0644
5 14.8661 11.1803 20.6155 27.2947 45.6070 0.0000 14.8661 41.1096 4.4721 14.8661 14.8661 41.1096 41.1096 4.4721 4.4721 14.8661
6 0.0000 25.6125 6.3246 27.7849 31.0644 14.8661 0.0000 29.0689 19.1050 0.0000 0.0000 29.0689 29.0689 19.1050 19.1050 0.0000
9 29.0689 52.2015 23.0000 30.0167 15.2971 41.1096 29.0689 0.0000 45.5412 29.0689 29.0689 0.0000 0.0000 45.5412 45.5412 29.0689
12 19.1050 6.7082 25.0000 30.0832 50.0000 4.4721 19.1050 45.5412 0.0000 19.1050 19.1050 45.5412 45.5412 0.0000 0.0000 19.1050
7 0.0000 25.6125 6.3246 27.7849 31.0644 14.8661 0.0000 29.0689 19.1050 0.0000 0.0000 29.0689 29.0689 19.1050 19.1050 0.0000
8 0.0000 25.6125 6.3246 27.7849 31.0644 14.8661 0.0000 29.0689 19.1050 0.0000 0.0000 29.0689 29.0689 19.1050 19.1050 0.0000
10 29.0689 52.2015 23.0000 30.0167 15.2971 41.1096 29.0689 0.0000 45.5412 29.0689 29.0689 0.0000 0.0000 45.5412 45.5412 29.0689
11 29.0689 52.2015 23.0000 30.0167 15.2971 41.1096 29.0689 0.0000 45.5412 29.0689 29.0689 0.0000 0.0000 45.5412 45.5412 29.0689
13 19.1050 6.7082 25.0000 30.0832 50.0000 4.4721 19.1050 45.5412 0.0000 19.1050 19.1050 45.5412 45.5412 0.0000 0.0000 19.1050
14 19.1050 6.7082 25.0000 30.0832 50.0000 4.4721 19.1050 45.5412 0.0000 19.1050 19.1050 45.5412 45.5412 0.0000 0.0000 19.1050
15 0.0000 25.6125 6.3246 27.7849 31.0644 14.8661 0.0000 29.0689 19.1050 0.0000 0.0000 29.0689 29.0689 19.1050 19.1050 0.0000
;

param t : 0 1 2 3 4 5 6 9 12 7 8 10 11 13 14 15 :=
0 0.0000 25.6125 6.3246 27.7849 31.0644 14.8661 0.0000 29.0689 19.1050 0.0000 0.0000 29.0689 29.0689 19.1050 19.1050 0.0000
1 25.6125 0.0000 31.6228 34.9285 56.6127 11.1803 25.6125 52.2015 6.7082 25.6125 25.6125 52.2015 52.2015 6.7082 6.7082 25.6125
2 6.3246 31.6228 0.0000 27.2029 25.0000 20.6155 6.3246 23.0000 25.0000 6.3246 6.3246 23.0000 23.0000 25.0000 25.0000 6.3246
3 27.7849 34.9285 27.2029 0.0000 42.7200 27.2947 27.7849 30.0167 30.0832 27.7849 27.7849 30.0167 30.0167 30.0832 30.0832 27.7849
4 31.0644 56.6127 25.0000 42.7200 0.0000 45.6070 31.0644 15.2971 50.0000 31.0644 31.0644 15.2971 15.2971 50.0000 50.0000 31.0644
5 14.8661 11.1803 20.6155 27.2947 45.6070 0.0000 14.8661 41.1096 4.4721 14.8661 14.8661 41.1096 41.1096 4.4721 4.4721 14.8661
6 0.0000 25.6125 6.3246 27.7849 31.0644 14.8661 0.0000 29.0689 19.1050 0.0000 0.0000 29.0689 29.0689 19.1050 19.1050 0.0000
9 29.0689 52.2015 23.0000 30.0167 15.2971 41.1096 29.0689 0.0000 45.5412 29.0689 29.0689 0.0000 0.0000 45.5412 45.5412 29.0689
12 19.1050 6.7082 25.0000 30.0832 50.0000 4.4721 19.1050 45.5412 0.0000 19.1050 19.1050 45.5412 45.5412 0.0000 0.0000 19.1050
7 0.0000 25.6125 6.3246 27.7849 31.0644 14.8661 0.0000 29.0689 19.1050 0.0000 0.0000 29.0689 29.0689 19.1050 19.1050 0.0000
8 0.0000 25.6125 6.3246 27.7849 31.0644 14.8661 0.0000 29.0689 19.1050 0.0000 0.0000 29.0689 29.0689 19.1050 19.1050 0.0000
10 29.0689 52.2015 23.0000 30.0167 15.2971 41.1096 29.0689 0.0000 45.5412 29.0689 29.0689 0.0000 0.0000 45.5412 45.5412 29.0689
11 29.0689 52.2015 23.0000 30.0167 15.2971 41.1096 29.0689 0.0000 45.5412 29.0689 29.0689 0.0000 0.0000 45.5412 45.5412 29.0689
13 19.1050 6.7082 25.0000 30.0832 50.0000 4.4721 19.1050 45.5412 0.0000 19.1050 19.1050 45.5412 45.5412 0.0000 0.0000 19.1050
14 19.1050 6.7082 25.0000 30.0832 50.0000 4.4721 19.1050 45.5412 0.0000 19.1050 19.1050 45.5412 45.5412 0.0000 0.0000 19.1050
15 0.0000 25.6125 6.3246 27.7849 31.0644 14.8661 0.0000 29.0689 19.1050 0.0000 0.0000 29.0689 29.0689 19.1050 19.1050 0.0000
;